\ LP format - for model browsing. Use MPS format to capture full model detail.
Minimize
  z0 + z1 + z2 + z3 + z4 + z5
Subject To
 R0: x0,1_52 + x0,1_54 + x0,1_85 + x0,1_88 + x0,1_99 - z1 <= 0
 R1: x0,2_52 + x0,2_54 + x0,2_85 + x0,2_88 + x0,2_99 - z2 <= 0
 R2: x0,3_52 + x0,3_54 + x0,3_85 + x0,3_88 + x0,3_99 - z3 <= 0
 R3: x0,4_52 + x0,4_54 + x0,4_85 + x0,4_88 + x0,4_99 - z4 <= 0
 R4: x0,5_52 + x0,5_54 + x0,5_85 + x0,5_88 + x0,5_99 - z5 <= 0
 R5: x1,2_52 + x1,2_54 + x1,2_85 + x1,2_88 + x1,2_99 - z2 <= 0
 R6: x1,3_52 + x1,3_54 + x1,3_85 + x1,3_88 + x1,3_99 - z3 <= 0
 R7: x1,4_52 + x1,4_54 + x1,4_85 + x1,4_88 + x1,4_99 - z4 <= 0
 R8: x1,5_52 + x1,5_54 + x1,5_85 + x1,5_88 + x1,5_99 - z5 <= 0
 R9: x2,3_52 + x2,3_54 + x2,3_85 + x2,3_88 + x2,3_99 - z3 <= 0
 R10: x2,4_52 + x2,4_54 + x2,4_85 + x2,4_88 + x2,4_99 - z4 <= 0
 R11: x2,5_52 + x2,5_54 + x2,5_85 + x2,5_88 + x2,5_99 - z5 <= 0
 R12: x3,4_52 + x3,4_54 + x3,4_85 + x3,4_88 + x3,4_99 - z4 <= 0
 R13: x3,5_52 + x3,5_54 + x3,5_85 + x3,5_88 + x3,5_99 - z5 <= 0
 R14: x4,5_52 + x4,5_54 + x4,5_85 + x4,5_88 + x4,5_99 - z5 <= 0
 R15: x0,1_52 + x0,2_52 + x0,3_52 + x0,4_52 + x0,5_52 + x1,2_52 + x1,3_52
   + x1,4_52 + x1,5_52 + x2,3_52 + x2,4_52 + x2,5_52 + x3,4_52 + x3,5_52
   + x4,5_52 = 1
 R16: x0,1_54 + x0,2_54 + x0,3_54 + x0,4_54 + x0,5_54 + x1,2_54 + x1,3_54
   + x1,4_54 + x1,5_54 + x2,3_54 + x2,4_54 + x2,5_54 + x3,4_54 + x3,5_54
   + x4,5_54 = 1
 R17: x0,1_85 + x0,2_85 + x0,3_85 + x0,4_85 + x0,5_85 + x1,2_85 + x1,3_85
   + x1,4_85 + x1,5_85 + x2,3_85 + x2,4_85 + x2,5_85 + x3,4_85 + x3,5_85
   + x4,5_85 = 1
 R18: x0,1_88 + x0,2_88 + x0,3_88 + x0,4_88 + x0,5_88 + x1,2_88 + x1,3_88
   + x1,4_88 + x1,5_88 + x2,3_88 + x2,4_88 + x2,5_88 + x3,4_88 + x3,5_88
   + x4,5_88 = 1
 R19: x0,1_99 + x0,2_99 + x0,3_99 + x0,4_99 + x0,5_99 + x1,2_99 + x1,3_99
   + x1,4_99 + x1,5_99 + x2,3_99 + x2,4_99 + x2,5_99 + x3,4_99 + x3,5_99
   + x4,5_99 = 1
 R20: p0 - p1 <= -1
 R21: - 52 x0,1_52 - p0 + p1 >= 0
 R22: 378 x0,1_52 - p0 + p1 <= 430
 R23: - 54 x0,1_54 - p0 + p1 >= 0
 R24: 378 x0,1_54 - p0 + p1 <= 432
 R25: - 85 x0,1_85 - p0 + p1 >= 0
 R26: 378 x0,1_85 - p0 + p1 <= 463
 R27: - 88 x0,1_88 - p0 + p1 >= 0
 R28: 378 x0,1_88 - p0 + p1 <= 466
 R29: - 99 x0,1_99 - p0 + p1 >= 0
 R30: 378 x0,1_99 - p0 + p1 <= 477
 R31: p0 - p2 <= -1
 R32: - 52 x0,2_52 - p0 + p2 >= 0
 R33: 378 x0,2_52 - p0 + p2 <= 430
 R34: - 54 x0,2_54 - p0 + p2 >= 0
 R35: 378 x0,2_54 - p0 + p2 <= 432
 R36: - 85 x0,2_85 - p0 + p2 >= 0
 R37: 378 x0,2_85 - p0 + p2 <= 463
 R38: - 88 x0,2_88 - p0 + p2 >= 0
 R39: 378 x0,2_88 - p0 + p2 <= 466
 R40: - 99 x0,2_99 - p0 + p2 >= 0
 R41: 378 x0,2_99 - p0 + p2 <= 477
 R42: p0 - p3 <= -1
 R43: - 52 x0,3_52 - p0 + p3 >= 0
 R44: 378 x0,3_52 - p0 + p3 <= 430
 R45: - 54 x0,3_54 - p0 + p3 >= 0
 R46: 378 x0,3_54 - p0 + p3 <= 432
 R47: - 85 x0,3_85 - p0 + p3 >= 0
 R48: 378 x0,3_85 - p0 + p3 <= 463
 R49: - 88 x0,3_88 - p0 + p3 >= 0
 R50: 378 x0,3_88 - p0 + p3 <= 466
 R51: - 99 x0,3_99 - p0 + p3 >= 0
 R52: 378 x0,3_99 - p0 + p3 <= 477
 R53: p0 - p4 <= -1
 R54: - 52 x0,4_52 - p0 + p4 >= 0
 R55: 378 x0,4_52 - p0 + p4 <= 430
 R56: - 54 x0,4_54 - p0 + p4 >= 0
 R57: 378 x0,4_54 - p0 + p4 <= 432
 R58: - 85 x0,4_85 - p0 + p4 >= 0
 R59: 378 x0,4_85 - p0 + p4 <= 463
 R60: - 88 x0,4_88 - p0 + p4 >= 0
 R61: 378 x0,4_88 - p0 + p4 <= 466
 R62: - 99 x0,4_99 - p0 + p4 >= 0
 R63: 378 x0,4_99 - p0 + p4 <= 477
 R64: p0 - p5 <= -1
 R65: - 52 x0,5_52 - p0 + p5 >= 0
 R66: 378 x0,5_52 - p0 + p5 <= 430
 R67: - 54 x0,5_54 - p0 + p5 >= 0
 R68: 378 x0,5_54 - p0 + p5 <= 432
 R69: - 85 x0,5_85 - p0 + p5 >= 0
 R70: 378 x0,5_85 - p0 + p5 <= 463
 R71: - 88 x0,5_88 - p0 + p5 >= 0
 R72: 378 x0,5_88 - p0 + p5 <= 466
 R73: - 99 x0,5_99 - p0 + p5 >= 0
 R74: 378 x0,5_99 - p0 + p5 <= 477
 R75: p1 - p2 <= -1
 R76: - 52 x1,2_52 - p1 + p2 >= 0
 R77: 378 x1,2_52 - p1 + p2 <= 430
 R78: - 54 x1,2_54 - p1 + p2 >= 0
 R79: 378 x1,2_54 - p1 + p2 <= 432
 R80: - 85 x1,2_85 - p1 + p2 >= 0
 R81: 378 x1,2_85 - p1 + p2 <= 463
 R82: - 88 x1,2_88 - p1 + p2 >= 0
 R83: 378 x1,2_88 - p1 + p2 <= 466
 R84: - 99 x1,2_99 - p1 + p2 >= 0
 R85: 378 x1,2_99 - p1 + p2 <= 477
 R86: p1 - p3 <= -1
 R87: - 52 x1,3_52 - p1 + p3 >= 0
 R88: 378 x1,3_52 - p1 + p3 <= 430
 R89: - 54 x1,3_54 - p1 + p3 >= 0
 R90: 378 x1,3_54 - p1 + p3 <= 432
 R91: - 85 x1,3_85 - p1 + p3 >= 0
 R92: 378 x1,3_85 - p1 + p3 <= 463
 R93: - 88 x1,3_88 - p1 + p3 >= 0
 R94: 378 x1,3_88 - p1 + p3 <= 466
 R95: - 99 x1,3_99 - p1 + p3 >= 0
 R96: 378 x1,3_99 - p1 + p3 <= 477
 R97: p1 - p4 <= -1
 R98: - 52 x1,4_52 - p1 + p4 >= 0
 R99: 378 x1,4_52 - p1 + p4 <= 430
 R100: - 54 x1,4_54 - p1 + p4 >= 0
 R101: 378 x1,4_54 - p1 + p4 <= 432
 R102: - 85 x1,4_85 - p1 + p4 >= 0
 R103: 378 x1,4_85 - p1 + p4 <= 463
 R104: - 88 x1,4_88 - p1 + p4 >= 0
 R105: 378 x1,4_88 - p1 + p4 <= 466
 R106: - 99 x1,4_99 - p1 + p4 >= 0
 R107: 378 x1,4_99 - p1 + p4 <= 477
 R108: p1 - p5 <= -1
 R109: - 52 x1,5_52 - p1 + p5 >= 0
 R110: 378 x1,5_52 - p1 + p5 <= 430
 R111: - 54 x1,5_54 - p1 + p5 >= 0
 R112: 378 x1,5_54 - p1 + p5 <= 432
 R113: - 85 x1,5_85 - p1 + p5 >= 0
 R114: 378 x1,5_85 - p1 + p5 <= 463
 R115: - 88 x1,5_88 - p1 + p5 >= 0
 R116: 378 x1,5_88 - p1 + p5 <= 466
 R117: - 99 x1,5_99 - p1 + p5 >= 0
 R118: 378 x1,5_99 - p1 + p5 <= 477
 R119: p2 - p3 <= -1
 R120: - 52 x2,3_52 - p2 + p3 >= 0
 R121: 378 x2,3_52 - p2 + p3 <= 430
 R122: - 54 x2,3_54 - p2 + p3 >= 0
 R123: 378 x2,3_54 - p2 + p3 <= 432
 R124: - 85 x2,3_85 - p2 + p3 >= 0
 R125: 378 x2,3_85 - p2 + p3 <= 463
 R126: - 88 x2,3_88 - p2 + p3 >= 0
 R127: 378 x2,3_88 - p2 + p3 <= 466
 R128: - 99 x2,3_99 - p2 + p3 >= 0
 R129: 378 x2,3_99 - p2 + p3 <= 477
 R130: p2 - p4 <= -1
 R131: - 52 x2,4_52 - p2 + p4 >= 0
 R132: 378 x2,4_52 - p2 + p4 <= 430
 R133: - 54 x2,4_54 - p2 + p4 >= 0
 R134: 378 x2,4_54 - p2 + p4 <= 432
 R135: - 85 x2,4_85 - p2 + p4 >= 0
 R136: 378 x2,4_85 - p2 + p4 <= 463
 R137: - 88 x2,4_88 - p2 + p4 >= 0
 R138: 378 x2,4_88 - p2 + p4 <= 466
 R139: - 99 x2,4_99 - p2 + p4 >= 0
 R140: 378 x2,4_99 - p2 + p4 <= 477
 R141: p2 - p5 <= -1
 R142: - 52 x2,5_52 - p2 + p5 >= 0
 R143: 378 x2,5_52 - p2 + p5 <= 430
 R144: - 54 x2,5_54 - p2 + p5 >= 0
 R145: 378 x2,5_54 - p2 + p5 <= 432
 R146: - 85 x2,5_85 - p2 + p5 >= 0
 R147: 378 x2,5_85 - p2 + p5 <= 463
 R148: - 88 x2,5_88 - p2 + p5 >= 0
 R149: 378 x2,5_88 - p2 + p5 <= 466
 R150: - 99 x2,5_99 - p2 + p5 >= 0
 R151: 378 x2,5_99 - p2 + p5 <= 477
 R152: p3 - p4 <= -1
 R153: - 52 x3,4_52 - p3 + p4 >= 0
 R154: 378 x3,4_52 - p3 + p4 <= 430
 R155: - 54 x3,4_54 - p3 + p4 >= 0
 R156: 378 x3,4_54 - p3 + p4 <= 432
 R157: - 85 x3,4_85 - p3 + p4 >= 0
 R158: 378 x3,4_85 - p3 + p4 <= 463
 R159: - 88 x3,4_88 - p3 + p4 >= 0
 R160: 378 x3,4_88 - p3 + p4 <= 466
 R161: - 99 x3,4_99 - p3 + p4 >= 0
 R162: 378 x3,4_99 - p3 + p4 <= 477
 R163: p3 - p5 <= -1
 R164: - 52 x3,5_52 - p3 + p5 >= 0
 R165: 378 x3,5_52 - p3 + p5 <= 430
 R166: - 54 x3,5_54 - p3 + p5 >= 0
 R167: 378 x3,5_54 - p3 + p5 <= 432
 R168: - 85 x3,5_85 - p3 + p5 >= 0
 R169: 378 x3,5_85 - p3 + p5 <= 463
 R170: - 88 x3,5_88 - p3 + p5 >= 0
 R171: 378 x3,5_88 - p3 + p5 <= 466
 R172: - 99 x3,5_99 - p3 + p5 >= 0
 R173: 378 x3,5_99 - p3 + p5 <= 477
 R174: p4 - p5 <= -1
 R175: - 52 x4,5_52 - p4 + p5 >= 0
 R176: 378 x4,5_52 - p4 + p5 <= 430
 R177: - 54 x4,5_54 - p4 + p5 >= 0
 R178: 378 x4,5_54 - p4 + p5 <= 432
 R179: - 85 x4,5_85 - p4 + p5 >= 0
 R180: 378 x4,5_85 - p4 + p5 <= 463
 R181: - 88 x4,5_88 - p4 + p5 >= 0
 R182: 378 x4,5_88 - p4 + p5 <= 466
 R183: - 99 x4,5_99 - p4 + p5 >= 0
 R184: 378 x4,5_99 - p4 + p5 <= 477
 R185: z0 - z1 >= 0
 R186: z1 - z2 >= 0
 R187: z2 - z3 >= 0
 R188: z3 - z4 >= 0
 R189: z4 - z5 >= 0
Bounds
Binaries
 x0,1_52 x0,1_54 x0,1_85 x0,1_88 x0,1_99 x0,2_52 x0,2_54 x0,2_85 x0,2_88
 x0,2_99 x0,3_52 x0,3_54 x0,3_85 x0,3_88 x0,3_99 x0,4_52 x0,4_54 x0,4_85
 x0,4_88 x0,4_99 x0,5_52 x0,5_54 x0,5_85 x0,5_88 x0,5_99 x1,2_52 x1,2_54
 x1,2_85 x1,2_88 x1,2_99 x1,3_52 x1,3_54 x1,3_85 x1,3_88 x1,3_99 x1,4_52
 x1,4_54 x1,4_85 x1,4_88 x1,4_99 x1,5_52 x1,5_54 x1,5_85 x1,5_88 x1,5_99
 x2,3_52 x2,3_54 x2,3_85 x2,3_88 x2,3_99 x2,4_52 x2,4_54 x2,4_85 x2,4_88
 x2,4_99 x2,5_52 x2,5_54 x2,5_85 x2,5_88 x2,5_99 x3,4_52 x3,4_54 x3,4_85
 x3,4_88 x3,4_99 x3,5_52 x3,5_54 x3,5_85 x3,5_88 x3,5_99 x4,5_52 x4,5_54
 x4,5_85 x4,5_88 x4,5_99 z0 z1 z2 z3 z4 z5
Generals
 p0 p1 p2 p3 p4 p5
End
